interval = 60;
days = 7;
demand = [11,5,7,7,9,13,8,8,15,20,25,27,29,25,29,28,22,23,20,17,18,14,14,15,15,10,7,7,9,13,8,8,15,23,28,30,34,30,34,30,24,25,22,19,18,14,14,15,15,10,7,7,9,13,8,8,15,23,28,30,34,30,34,30,24,25,22,19,18,14,14,15,15,10,7,7,9,9,4,4,6,14,19,21,23,24,28,24,18,23,20,17,18,14,14,11,11,6,7,7,9,13,8,8,15,26,31,33,37,33,37,33,24,25,22,19,18,14,14,15,15,10,7,7,8,12,7,7,9,16,21,23,25,26,30,28,24,25,22,19,17,14,12,11,11,5,7,7,8,12,7,7,9,16,21,23,25,28,32,30,26,27,22,19,17,14,12,11];
shiftTypes = 4;
minStart = [5, 9, 13, 21];
maxStart = [8, 11, 15, 23];
minLength = [7, 7, 7, 7];
maxLength = [9, 9, 9, 9];
minDuties = 4.8;
maxDuties = 5;
avgMinutes = 2280;
weightUnderCover = 1;
weightOverCover = 1;
weightDutiesPerWeek = 0;
weightShiftInstances = 60;
